##############################################################################
#                                                                            #
# Ag-P             # AgP2                                          #  452679 #
#                                                                            #
##############################################################################
#                                                                            #
#                           Pearson's Crystal Data                           #
#      Crystal Structure Database for Inorganic Compounds (on DVD)           #
#                              Release 2017/18                               #
#                  Editors: Pierre Villars and Karin Cenzual                 #
#                                                                            #
#   Copyright (c) ASM International & Material Phases Data System (MPDS),    #
# Switzerland & National Institute for Materials Science (NIMS), Japan, 2017 #
#                   All rights reserved. Version 2017.08                     #
#                                                                            #
#   This copy of Pearson's Crystal Data is licensed to:                      #
#   University of Alberta, Chemistry Department, 1-5 Installations License         #
#                                                                            #
##############################################################################

data_452679
_audit_creation_date                     2017-12-01
_audit_creation_method
;
Pearson's Crystal Data browser
;
#_database_code_PCD                      452679

# Entry summary

_chemical_formula_structural             'Ag P~2~'
_chemical_formula_sum                    'Ag P2'
_chemical_name_mineral                   ?
_chemical_compound_source                ?
_chemical_name_structure_type            CuP~2~,mP12,14
_chemical_formula_weight                 169.8

# Bibliographic data

_publ_section_title
;
The Crystal Structures of CuP~2~ and AgP~2~ with some Phase Analytical Data of the Cu-P and Ag-P Systems
;
_journal_coden_ASTM                      ACSAA4
_journal_name_full                       'Acta Chem. Scand.'
_journal_year                            1965
_journal_volume                          19
_journal_page_first                      229
_journal_page_last                       241
_journal_language                        English
loop_
 _publ_author_name
 _publ_author_address
'Olofsson O.'
;
Uppsala University
Institute of Chemistry
Uppsala
Sweden
;

# Standardized crystallographic data

_cell_length_a                           6.218
_cell_length_b                           5.056
_cell_length_c                           7.804
_cell_angle_alpha                        90
_cell_angle_beta                         113.48
_cell_angle_gamma                        90
_cell_volume                             225.03
_cell_formula_units_Z                    4
_space_group_IT_number                   14
_space_group_name_H-M_alt                'P 1 21/c 1'
loop_
 _space_group_symop_id
 _space_group_symop_operation_xyz
 1 'x, y, z'
 2 '-x, -y, -z'
 3 '-x, 1/2+y, 1/2-z'
 4 'x, 1/2-y, 1/2+z'
loop_
 _atom_type_symbol
 P
 Ag
loop_
 _atom_site_label
 _atom_site_type_symbol
 _atom_site_symmetry_multiplicity
 _atom_site_Wyckoff_symbol
 _atom_site_fract_x
 _atom_site_fract_y
 _atom_site_fract_z
 _atom_site_occupancy
 PII P 4 e 0.0934 0.1147 0.4195 1
 Ag Ag 4 e 0.3565 0.0395 0.0842 1
 PI P 4 e 0.7493 0.2788 0.1989 1


_exptl_crystal_colour                    ?
_exptl_crystal_density_meas              ?
_exptl_crystal_density_diffrn            5.01
_cell_measurement_temperature            ?
_cell_measurement_radiation              'X-rays, Cu Ka'
_cell_measurement_wavelength             1.5418
_pd_proc_wavelength                      1.5418
_cell_measurement_reflns_used            ?
_diffrn_ambient_temperature              ?
_diffrn_measurement_device               'Guinier film'
_diffrn_measurement_device_type          ?
_diffrn_radiation_type                   'X-rays, Cu Ka'
_diffrn_radiation_wavelength             1.5418
_diffrn_reflns_number                    ?
_exptl_absorpt_coefficient_mu            ?
_exptl_absorpt_correction_type           ?
_computing_structure_solution            'starting values from the literature'
_refine_ls_number_parameters             ?
_refine_ls_number_reflns                 ?
_refine_ls_R_factor_gt                   ?
_refine_ls_wR_factor_gt                  ?
_pd_proc_ls_proof_R_factor               ?
_pd_proc_ls_proof_wR_factor              ?
_refine_ls_R_I_factor                    ?

# Published diffraction lines

loop_
 _refln_index_h
 _refln_index_k
 _refln_index_l
 _refln_d_spacing
 _refln_intensity_meas
 1 0 0 1820 4.5
 0 1 1 3470 7
 1 0 -2 4130 3
 0 0 2 4630 2
 1 1 -2 6450 8
 0 1 2 6950 3
 2 0 -2 7290 5
 2 1 -1 8460 4.5
 1 0 2 8770 2
 0 2 0 9280 3
 2 1 -2 9610 3
 0 2 1 10440 3
 1 1 -3 11090 7
 0 1 3 12750 1
 2 1 -3 13090 4.5
 1 2 -2 13420 4.5
 0 2 2 13930 2
 3 0 -2 14110 2
 2 2 -1 15430 3
 1 0 -4 15710 3
 3 0 0 16430 5
 2 0 -4 16570 7
 1 1 -4 18060 4.5
 0 0 4 18540 2
 3 1 -3 18760 2
 0 2 3 19710 3
 2 2 -3 20070 1
 3 0 -4 21050 2
 1 3 -1 22710 3
 3 1 -4 23370 1
 1 2 -4 25020 3
 3 2 -3 25760 3
 2 1 -5 27020 2
 1 1 -5 27320 2
 0 2 4 27800 2
 4 1 -3 28010 2
 4 0 -4 29190 2
 1 3 -3 29650 2

# End of data set 452679


