##############################################################################
#                                                                            #
# Hf-Ir            # Hf5Ir3                                        #  251193 #
#                                                                            #
##############################################################################
#                                                                            #
#                           Pearson's Crystal Data                           #
#      Crystal Structure Database for Inorganic Compounds (on DVD)           #
#                              Release 2017/18                               #
#                  Editors: Pierre Villars and Karin Cenzual                 #
#                                                                            #
#   Copyright (c) ASM International & Material Phases Data System (MPDS),    #
# Switzerland & National Institute for Materials Science (NIMS), Japan, 2017 #
#                   All rights reserved. Version 2017.08                     #
#                                                                            #
#   This copy of Pearson's Crystal Data is licensed to:                      #
#   University of Alberta, Chemistry Department, 1-5 Installations License         #
#                                                                            #
##############################################################################

data_251193
_audit_creation_date                     2017-12-01
_audit_creation_method
;
Pearson's Crystal Data browser
;
#_database_code_PCD                      251193

# Entry summary

_chemical_formula_structural             'Hf~5~ Ir~3~'
_chemical_formula_sum                    'Hf5 Ir3'
_chemical_name_mineral                   ?
_chemical_compound_source                ?
_chemical_name_structure_type            Zr~5~Ir~3~,hP48,178
_chemical_formula_weight                 1469.1
_chemical_melting_point                  2203

# Bibliographic data

_publ_section_title                      'The hafnium-iridium system'
_journal_coden_ASTM                      JCOMAH
_journal_name_full                       'J. Less-Common Met.'
_journal_year                            1969
_journal_volume                          18
_journal_page_first                      347
_journal_page_last                       355
_journal_language                        English
loop_
 _publ_author_name
 _publ_author_address
'Copeland M.I.'
;
Albany Metallurgy Research Center
Department of the Interior
Albany
U.S.A. Oregon
;
'Goodrich D.'
;
Albany Metallurgy Research Center
Department of the Interior
Albany
U.S.A. Oregon
;

# Standardized crystallographic data

_cell_length_a                           7.863
_cell_length_b                           7.863
_cell_length_c                           16.89
_cell_angle_alpha                        90
_cell_angle_beta                         90
_cell_angle_gamma                        120
_cell_volume                             904.35
_cell_formula_units_Z                    6
_space_group_IT_number                   178
_space_group_name_H-M_alt                'P 61 2 2'
loop_
 _space_group_symop_id
 _space_group_symop_operation_xyz
 1 'x, y, z'
 2 '-x+y, -x, -1/3+z'
 3 '-x+y, y, 1/2-z'
 4 '-x, -x+y, -1/3-z'
 5 '-x, -y, 1/2+z'
 6 '-y, -x, -1/6-z'
 7 '-y, x-y, 1/3+z'
 8 'x, x-y, 1/6-z'
 9 'x-y, -y, -z'
 10 'x-y, x, 1/6+z'
 11 'y, -x+y, -1/6+z'
 12 'y, x, 1/3-z'

# Atomic positions taken from type-defining entry

loop_
 _atom_type_symbol
 Hf
 Ir
loop_
 _atom_site_label
 _atom_site_type_symbol
 _atom_site_symmetry_multiplicity
 _atom_site_Wyckoff_symbol
 _atom_site_fract_x
 _atom_site_fract_y
 _atom_site_fract_z
 _atom_site_occupancy
 Hf1 Hf 12 c 0.2384 0.0062 0.3396 1
 Ir1 Ir 12 c 0.4137 0.0187 0.1444 1
 Hf2 Hf 6 b 0.3710 0.7420 0.25 1
 Hf3 Hf 6 b 0.6557 0.3114 0.25 1
 Hf4 Hf 6 a 0.2480 0 0 1
 Ir2 Ir 6 a 0.6111 0 0 1


_exptl_crystal_colour                    ?
_exptl_crystal_density_meas              ?
_exptl_crystal_density_diffrn            16.19
_cell_measurement_temperature            ?
_cell_measurement_radiation              'X-rays, Cu Ka'
_cell_measurement_reflns_used            ?
_diffrn_ambient_temperature              ?
_diffrn_measurement_device               diffractometer
_diffrn_measurement_device_type          ?
_diffrn_radiation_type                   ?
_diffrn_reflns_number                    ?
_exptl_absorpt_coefficient_mu            ?
_exptl_absorpt_correction_type           ?
_computing_structure_solution            ?
_refine_ls_number_parameters             ?
_refine_ls_number_reflns                 ?
_refine_ls_R_factor_gt                   ?
_refine_ls_wR_factor_gt                  ?

# Published diffraction lines

loop_
 _refln_index_h
 _refln_index_k
 _refln_index_l
 _refln_d_spacing
 _refln_intensity_meas
 1 0 0 68.4 6
 1 0 2 53 2
 1 1 0 39.3 3
 1 1 2 35.7 2
 1 1 3 32.25 2
 2 0 2 31.64 4
 0 0 6 28.2 15
 2 0 4 26.54 3
 1 0 6 26.03 13
 2 1 0 25.78 25
 2 1 2 24.66 15
 2 0 5 23.77 15
 2 1 3 23.44 100
 1 1 6 22.91 60
 1 0 7 22.73 15
 2 1 4 22 7
 3 0 2 21.82 5
 1 1 7 20.57 9
 1 0 8 20.19 12
 3 1 0 18.86 5
 1 1 8 18.6 10
 3 1 3 17.92 15
 2 1 7 17.57 2
 3 1 4 17.23 2
 4 0 0 17.03 1
 2 1 8 16.3 2
 2 2 6 16.14 8
 2 1 9 15.15 20
 3 2 3 15.06 7
 4 1 0 14.86 4
 3 2 4 14.65 3
 4 0 6 14.56 7
 3 2 5 14.18 3
 2 1 10 14.14 1
 0 0 12 14.06 9
 4 1 4 13.99 1
 3 2 6 13.65 3
 5 0 0 13.62 6
 3 1 9 13.31 1
 1 1 12 13.26 3
 2 1 11 13.18 5
 0 0 13 13 1
 5 0 4 12.95 3
 4 2 0 12.87 8
 3 3 3 12.77 6
 5 0 5 12.63 1
 3 1 10 12.6 2
 3 2 8 12.54 4
 2 1 12 12.35 5
 5 0 6 12.26 12
 4 1 8 12.14 3
 5 1 2 12.11 3
 3 2 9 12.01 4
 5 1 3 11.96 8
 3 3 6 11.88 6
 5 1 4 11.75 1
 4 2 6 11.7 3
 3 2 10 11.47 2
 2 0 14 11.37 3
 6 0 3 11.13 2
 4 3 3 10.98 4
 3 2 11 10.95 5
 1 1 15 10.82 2
 3 3 9 10.74 2
 3 1 13 10.71 3

# End of data set 251193


